(set-info :source |printed by MathSAT|)
(declare-fun call_intloop6counter.flby () Int)
(declare-fun d () Bool)
(declare-fun _OK_ () Bool)
(declare-fun call_loop6counter.flby3 () Bool)
(declare-fun call_loop6counter.a () Bool)
(declare-fun call_loop6counter.flby () Bool)
(declare-fun call_loop6counter.b () Bool)
(declare-fun call_loop6counter.flby2 () Bool)
(declare-fun call_loop6counter.out () Bool)
(declare-fun param_x () Bool)
(declare-fun b () Bool)
(declare-fun call_intloop6counter.out () Bool)
(declare-fun call_loop6counter.c () Bool)
(declare-fun call_intloop6counter.time () Int)
(define-fun .def_183 () Bool (= call_intloop6counter.flby 0))
(define-fun .def_181 () Bool (not call_loop6counter.flby3))
(define-fun .def_179 () Bool (not call_loop6counter.flby2))
(define-fun .def_178 () Bool (not call_loop6counter.flby))
(define-fun .def_180 () Bool (and .def_178 .def_179))
(define-fun .def_182 () Bool (and .def_180 .def_181))
(define-fun .def_184 () Bool (and .def_182 .def_183))
(define-fun .def_176 () Bool (= call_intloop6counter.time call_intloop6counter.flby))
(define-fun .def_172 () Bool (= call_intloop6counter.time 5))
(define-fun .def_173 () Bool (= call_intloop6counter.out .def_172))
(define-fun .def_169 () Bool (= call_loop6counter.c call_loop6counter.flby3))
(define-fun .def_166 () Bool (= call_loop6counter.b call_loop6counter.flby2))
(define-fun .def_162 () Bool (= call_loop6counter.a call_loop6counter.flby))
(define-fun .def_158 () Bool (and call_loop6counter.a call_loop6counter.c))
(define-fun .def_159 () Bool (= call_loop6counter.out .def_158))
(define-fun .def_154 () Bool (= d call_intloop6counter.out))
(define-fun .def_151 () Bool (= b call_loop6counter.out))
(define-fun .def_147 () Bool (not param_x))
(define-fun .def_145 () Bool (= b d))
(define-fun .def_148 () Bool (or .def_145 .def_147))
(define-fun .def_149 () Bool (= _OK_ .def_148))
(define-fun .def_152 () Bool (and .def_149 .def_151))
(define-fun .def_155 () Bool (and .def_152 .def_154))
(define-fun .def_160 () Bool (and .def_155 .def_159))
(define-fun .def_163 () Bool (and .def_160 .def_162))
(define-fun .def_167 () Bool (and .def_163 .def_166))
(define-fun .def_170 () Bool (and .def_167 .def_169))
(define-fun .def_174 () Bool (and .def_170 .def_173))
(define-fun .def_177 () Bool (and .def_174 .def_176))
(define-fun .def_185 () Bool (and .def_177 .def_184))
(assert .def_185)
